(set-info :smt-lib-version 2.6)
(set-logic QF_FPBV)
(set-info :source |Random FP created by PyMPF|)
(set-info :license |https://www.gnu.org/licenses/gpl-3.0.html|)
(set-info :category random)
(set-info :status unsat)
;; fp.from.ubv(BitVec 32)
(declare-const x (_ BitVec 32))
(assert (bvule x #b11100101101111111100010000111111))
;; x should be 3854550079

(declare-const r Float64)
(assert (= r ((_ to_fp_unsigned 11 53) RNE x)))
(assert (not (fp.leq r ((_ to_fp 11 53) #x41ECB7F887E00000))))
(check-sat)
(exit)
